problem_generation/data/GISP/train/er_n=67_m=1339_p=0.60_SET2_setparam=100.00_alpha=0.50_805.lp
maximize
OBJ:100x0 + 100x1 + 100x2 + 100x3 + 100x4 + 100x5 + 100x6 + 100x7 + 100x8 + 100x9 + 100x10 + 100x11 + 100x12 + 100x13 + 100x14 + 100x15 + 100x16 + 100x17 + 100x18 + 100x19 + 100x20 + 100x21 + 100x22 + 100x23 + 100x24 + 100x25 + 100x26 + 100x27 + 100x28 + 100x29 + 100x30 + 100x31 + 100x32 + 100x33 + 100x34 + 100x35 + 100x36 + 100x37 + 100x38 + 100x39 + 100x40 + 100x41 + 100x42 + 100x43 + 100x44 + 100x45 + 100x46 + 100x47 + 100x48 + 100x49 + 100x50 + 100x51 + 100x52 + 100x53 + 100x54 + 100x55 + 100x56 + 100x57 + 100x58 + 100x59 + 100x60 + 100x61 + 100x62 + 100x63 + 100x64 + 100x65 + 100x66 - y15_21 - y26_30 - y26_39 - y17_58 - y7_35 - y5_65 - y29_41 - y8_18 - y21_37 - y11_14 - y29_50 - y48_63 - y29_59 - y40_59 - y21_55 - y10_27 - y10_36 - y41_51 - y25_34 - y44_47 - y25_43 - y3_33 - y36_48 - y47_48 - y36_57 - y47_57 - y17_53 - y17_62 - y28_62 - y6_34 - y40_45 - y6_52 - y10_31 - y10_49 - y44_51 - y10_58 - y22_23 - y2_54 - y3_28 - y35_60 - y3_37 - y16_65 - y36_43 - y55_56 - y28_39 - y36_52 - y55_65 - y5_46 - y17_48 - y47_61 - y17_57 - y28_57 - y28_66 - y6_29 - y6_47 - y40_58 - y10_17 - y2_13 - y54_60 - y33_37 - y2_31 - y25_42 - y3_5 - y32_41 - y22_27 - y13_46 - y24_46 - y3_23 - y32_59 - y43_59 - y1_53 - y51_63 - y17_34 - y55_60 - y36_56 - y47_56 - y36_65 - y9_48 - y9_66 - y42_63 - y21_40 - y39_57 - y20_53 - y20_62 - y31_62 - y23_58 - y13_32 - y32_45 - y13_41 - y32_63 - y35_59 - y17_20 - y1_66 - y5_27 - y17_29 - y28_29 - y9_25 - y17_38 - y36_51 - y5_45 - y17_47 - y21_26 - y6_37 - y2_3 - y20_39 - y39_61 - y12_44 - y31_57 - y31_66 - y23_62 - y24_27 - y3_4 - y13_36 - y24_36 - y35_36 - y1_43 - y13_45 - y24_54 - y35_54 - y1_61 - y5_22 - y17_24 - y9_29 - y49_65 - y42_44 - y27_55 - y21_30 - y50_66 - y19_60 - y0_56 - y11_56 - y31_34 - y10_11 - y11_65 - y39_47 - y2_16 - y54_63 - y4_44 - y4_53 - y12_66 - y13_31 - y43_44 - y1_38 - y24_40 - y35_49 - y5_26 - y46_64 - y5_35 - y5_44 - y6_9 - y50_61 - y8_55 - y19_55 - y30_55 - y0_51 - y20_38 - y31_38 - y12_34 - y23_34 - y39_60 - y23_43 - y20_56 - y31_56 - y1_15 - y31_65 - y12_61 - y16_22 - y13_44 - y37_63 - y57_59 - y26_53 - y49_55 - y15_62 - y7_58 - y8_32 - y19_41 - y27_54 - y0_37 - y11_37 - y19_50 - y30_50 - y42_52 - y42_61 - y20_24 - y31_33 - y0_64 - y12_29 - y12_38 - y20_51 - y12_47 - y53_57 - y34_53 - y1_28 - y4_61 - y16_26 - y16_35 - y14_65 - y5_16 - y46_54 - y15_48 - y46_63 - y18_53 - y19_36 - y30_45 - y0_41 - y8_54 - y0_50 - y11_50 - y8_63 - y12_15 - y4_11 - y0_59 - y12_24 - y23_24 - y31_37 - y12_33 - y33_65 - y4_38 - y34_39 - y1_14 - y13_16 - y1_23 - y37_44 - y45_57 - y1_32 - y37_53 - y16_30 - y3_60 - y5_11 - y15_43 - y38_45 - y38_54 - y49_63 - y18_57 - y8_22 - y19_31 - y63_65 - y8_40 - y19_40 - y11_36 - y4_6 - y31_32 - y4_15 - y52_64 - y33_60 - y23_37 - y4_33 - y22_41 - y53_56 - y22_50 - y45_61 - y3_55 - y14_64 - y7_25 - y18_25 - y26_56 - y7_52 - y0_13 - y18_61 - y0_22 - y29_58 - y19_35 - y0_31 - y11_31 - y8_44 - y19_44 - y0_40 - y11_40 - y11_49 - y12_14 - y4_10 - y41_59 - y1_4 - y25_60 - y1_13 - y3_32 - y3_41 - y37_43 - y22_54 - y3_50 - y22_63 - y37_61 - y7_38 - y18_38 - y26_51 - y7_47 - y29_53 - y48_66 - y6_60 - y11_26 - y40_62 - y0_35 - y11_35 - y41_54 - y25_37 - y52_54 - y10_48 - y41_63 - y33_59 - y44_59 - y25_55 - y22_31 - y2_62 - y25_64 - y22_49 - y14_45 - y37_56 - y59_62 - y29_48 - y40_48 - y19_25 - y6_55 - y11_21 - y21_53 - y6_64 - y29_66 - y21_62 - y41_49 - y33_45 - y25_41 - y10_52 - y44_54 - y2_48 - y25_50 - y44_63 - y14_22 - y2_66 - y3_31 - y14_31 - y14_40 - y37_42 - y14_49 - y36_46 - y15_23 - y36_55 - y26_32 - y28_51 - y59_66 - y7_37 - y9_56 - y9_65 - y21_39 - y6_50 - y40_52 - y48_65 - y21_48 - y40_61 - y10_20 - y10_29 - y25_45 - y2_52 - y14_17 - y51_66 - y3_26 - y22_39 - y3_35 - y14_35 - y59_61 - y5_62 - y6_27 - y17_64 - y9_60 - y29_38 - y40_47 - y6_54 - y21_52 - y10_15 - y10_24 - y2_20 - y54_58 - y33_35 - y2_29 - y20_65 - y2_47 - y3_12 - y22_25 - y51_61 - y2_56 - y32_57 - y35_53 - y32_66 - y1_60 - y35_62 - y17_32 - y28_32 - y7_9 - y36_45 - y28_41 - y47_54 - y9_37 - y28_50 - y47_63 - y5_57 - y58_60 - y29_33 - y9_64 - y61_65 - y6_40 - y21_38 - y29_51 - y2_6 - y62_66 - y2_24 - y20_60 - y12_65 - y2_42 - y32_43 - y14_16 - y24_48 - y35_57 - y35_66 - y36_40 - y9_23 - y5_34 - y36_49 - y47_49 - y6_17 - y28_63 - y58_64 - y9_59 - y50_60 - y6_35 - y10_23 - y39_59 - y20_55 - y54_57 - y10_32 - y12_51 - y2_28 - y20_64 - y54_66 - y2_37 - y32_47 - y24_43 - y43_56 - y35_52 - y32_65 - y1_59 - y24_61 - y35_61 - y5_20 - y9_18 - y16_66 - y28_31 - y9_27 - y5_38 - y17_40 - y28_49 - y9_45 - y6_21 - y6_30 - y8_58 - y19_58 - y0_63 - y39_45 - y20_41 - y20_50 - y39_63 - y23_46 - y62_65 - y4_42 - y23_55 - y32_33 - y12_64 - y1_27 - y24_29 - y32_42 - y16_25 - y13_38 - y32_51 - y35_47 - y16_52 - y46_53 - y65_66 - y16_61 - y5_24 - y17_26 - y46_62 - y38_58 - y57_62 - y9_31 - y28_44 - y9_40 - y58_63 - y0_49 - y19_62 - y31_36 - y39_49 - y23_32 - y2_9 - y23_41 - y31_54 - y4_37 - y43_46 - y16_29 - y34_65 - y24_42 - y16_38 - y1_49 - y5_10 - y1_58 - y9_17 - y57_66 - y15_60 - y5_37 - y27_34 - y7_65 - y18_65 - y19_39 - y27_52 - y19_48 - y30_48 - y30_57 - y20_22 - y0_53 - y8_66 - y20_31 - y0_62 - y2_4 - y31_40 - y39_53 - y12_36 - y20_49 - y4_32 - y12_45 - y1_17 - y13_19 - y4_50 - y53_55 - y13_28 - y24_28 - y4_59 - y34_60 - y45_60 - y56_60 - y46_52 - y9_12 - y15_46 - y38_57 - y18_51 - y27_29 - y8_34 - y19_34 - y30_43 - y42_45 - y27_65 - y8_61 - y20_26 - y23_31 - y20_44 - y4_27 - y12_40 - y1_3 - y23_40 - y23_49 - y13_14 - y4_45 - y45_46 - y1_21 - y53_59 - y4_54 - y1_39 - y3_58 - y37_60 - y38_43 - y5_18 - y7_46 - y38_61 - y18_55 - y19_29 - y11_25 - y27_51 - y19_56 - y20_21 - y0_52 - y12_17 - y0_61 - y4_22 - y33_58 - y23_35 - y53_54 - y22_48 - y37_46 - y34_59 - y14_53 - y37_55 - y7_32 - y7_41 - y7_50 - y8_15 - y26_63 - y0_20 - y11_20 - y19_33 - y0_29 - y11_29 - y40_65 - y30_51 - y0_47 - y41_57 - y33_53 - y41_66 - y10_60 - y33_62 - y1_2 - y4_35 - y34_36 - y2_65 - y22_43 - y1_20 - y37_41 - y34_54 - y37_50 - y14_57 - y3_66 - y26_31 - y18_27 - y26_40 - y38_42 - y15_49 - y0_6 - y7_54 - y18_54 - y0_15 - y11_15 - y48_64 - y11_24 - y29_60 - y8_37 - y0_33 - y4_12 - y1_6 - y2_60 - y25_62 - y22_38 - y14_34 - y3_43 - y14_43 - y56_58 - y55_62 - y0_1 - y0_10 - y29_46 - y40_46 - y48_59 - y11_19 - y40_55 - y0_28 - y40_64 - y10_41 - y41_56 - y4_16 - y2_46 - y44_61 - y34_35 - y25_66 - y22_42 - y3_38 - y22_51 - y3_47 - y14_56
 Subject to
C1: x0+x1-y0_1 <=1 
C2: x0+x3 <=1 
C3: x0+x4 <=1 
C4: x0+x6-y0_6 <=1 
C5: x0+x10-y0_10 <=1 
C6: x0+x11 <=1 
C7: x0+x12 <=1 
C8: x0+x13-y0_13 <=1 
C9: x0+x14 <=1 
C10: x0+x15-y0_15 <=1 
C11: x0+x16 <=1 
C12: x0+x18 <=1 
C13: x0+x20-y0_20 <=1 
C14: x0+x21 <=1 
C15: x0+x22-y0_22 <=1 
C16: x0+x26 <=1 
C17: x0+x28-y0_28 <=1 
C18: x0+x29-y0_29 <=1 
C19: x0+x31-y0_31 <=1 
C20: x0+x32 <=1 
C21: x0+x33-y0_33 <=1 
C22: x0+x34 <=1 
C23: x0+x35-y0_35 <=1 
C24: x0+x37-y0_37 <=1 
C25: x0+x38 <=1 
C26: x0+x40-y0_40 <=1 
C27: x0+x41-y0_41 <=1 
C28: x0+x46 <=1 
C29: x0+x47-y0_47 <=1 
C30: x0+x48 <=1 
C31: x0+x49-y0_49 <=1 
C32: x0+x50-y0_50 <=1 
C33: x0+x51-y0_51 <=1 
C34: x0+x52-y0_52 <=1 
C35: x0+x53-y0_53 <=1 
C36: x0+x54 <=1 
C37: x0+x56-y0_56 <=1 
C38: x0+x57 <=1 
C39: x0+x58 <=1 
C40: x0+x59-y0_59 <=1 
C41: x0+x60 <=1 
C42: x0+x61-y0_61 <=1 
C43: x0+x62-y0_62 <=1 
C44: x0+x63-y0_63 <=1 
C45: x0+x64-y0_64 <=1 
C46: x0+x65 <=1 
C47: x1+x2-y1_2 <=1 
C48: x1+x3-y1_3 <=1 
C49: x1+x4-y1_4 <=1 
C50: x1+x6-y1_6 <=1 
C51: x1+x11 <=1 
C52: x1+x13-y1_13 <=1 
C53: x1+x14-y1_14 <=1 
C54: x1+x15-y1_15 <=1 
C55: x1+x17-y1_17 <=1 
C56: x1+x20-y1_20 <=1 
C57: x1+x21-y1_21 <=1 
C58: x1+x22 <=1 
C59: x1+x23-y1_23 <=1 
C60: x1+x25 <=1 
C61: x1+x26 <=1 
C62: x1+x27-y1_27 <=1 
C63: x1+x28-y1_28 <=1 
C64: x1+x32-y1_32 <=1 
C65: x1+x35 <=1 
C66: x1+x37 <=1 
C67: x1+x38-y1_38 <=1 
C68: x1+x39-y1_39 <=1 
C69: x1+x41 <=1 
C70: x1+x43-y1_43 <=1 
C71: x1+x48 <=1 
C72: x1+x49-y1_49 <=1 
C73: x1+x50 <=1 
C74: x1+x52 <=1 
C75: x1+x53-y1_53 <=1 
C76: x1+x55 <=1 
C77: x1+x56 <=1 
C78: x1+x58-y1_58 <=1 
C79: x1+x59-y1_59 <=1 
C80: x1+x60-y1_60 <=1 
C81: x1+x61-y1_61 <=1 
C82: x1+x63 <=1 
C83: x1+x64 <=1 
C84: x1+x65 <=1 
C85: x1+x66-y1_66 <=1 
C86: x2+x3-y2_3 <=1 
C87: x2+x4-y2_4 <=1 
C88: x2+x6-y2_6 <=1 
C89: x2+x8 <=1 
C90: x2+x9-y2_9 <=1 
C91: x2+x10 <=1 
C92: x2+x12 <=1 
C93: x2+x13-y2_13 <=1 
C94: x2+x15 <=1 
C95: x2+x16-y2_16 <=1 
C96: x2+x18 <=1 
C97: x2+x19 <=1 
C98: x2+x20-y2_20 <=1 
C99: x2+x21 <=1 
C100: x2+x23 <=1 
C101: x2+x24-y2_24 <=1 
C102: x2+x27 <=1 
C103: x2+x28-y2_28 <=1 
C104: x2+x29-y2_29 <=1 
C105: x2+x31-y2_31 <=1 
C106: x2+x32 <=1 
C107: x2+x37-y2_37 <=1 
C108: x2+x39 <=1 
C109: x2+x40 <=1 
C110: x2+x42-y2_42 <=1 
C111: x2+x43 <=1 
C112: x2+x45 <=1 
C113: x2+x46-y2_46 <=1 
C114: x2+x47-y2_47 <=1 
C115: x2+x48-y2_48 <=1 
C116: x2+x51 <=1 
C117: x2+x52-y2_52 <=1 
C118: x2+x54-y2_54 <=1 
C119: x2+x55 <=1 
C120: x2+x56-y2_56 <=1 
C121: x2+x57 <=1 
C122: x2+x59 <=1 
C123: x2+x60-y2_60 <=1 
C124: x2+x62-y2_62 <=1 
C125: x2+x65-y2_65 <=1 
C126: x2+x66-y2_66 <=1 
C127: x3+x4-y3_4 <=1 
C128: x3+x5-y3_5 <=1 
C129: x3+x6 <=1 
C130: x3+x10 <=1 
C131: x3+x11 <=1 
C132: x3+x12-y3_12 <=1 
C133: x3+x16 <=1 
C134: x3+x17 <=1 
C135: x3+x18 <=1 
C136: x3+x20 <=1 
C137: x3+x22 <=1 
C138: x3+x23-y3_23 <=1 
C139: x3+x26-y3_26 <=1 
C140: x3+x27 <=1 
C141: x3+x28-y3_28 <=1 
C142: x3+x30 <=1 
C143: x3+x31-y3_31 <=1 
C144: x3+x32-y3_32 <=1 
C145: x3+x33-y3_33 <=1 
C146: x3+x34 <=1 
C147: x3+x35-y3_35 <=1 
C148: x3+x36 <=1 
C149: x3+x37-y3_37 <=1 
C150: x3+x38-y3_38 <=1 
C151: x3+x39 <=1 
C152: x3+x41-y3_41 <=1 
C153: x3+x42 <=1 
C154: x3+x43-y3_43 <=1 
C155: x3+x44 <=1 
C156: x3+x45 <=1 
C157: x3+x46 <=1 
C158: x3+x47-y3_47 <=1 
C159: x3+x48 <=1 
C160: x3+x49 <=1 
C161: x3+x50-y3_50 <=1 
C162: x3+x54 <=1 
C163: x3+x55-y3_55 <=1 
C164: x3+x58-y3_58 <=1 
C165: x3+x60-y3_60 <=1 
C166: x3+x62 <=1 
C167: x3+x66-y3_66 <=1 
C168: x4+x5 <=1 
C169: x4+x6-y4_6 <=1 
C170: x4+x7 <=1 
C171: x4+x10-y4_10 <=1 
C172: x4+x11-y4_11 <=1 
C173: x4+x12-y4_12 <=1 
C174: x4+x15-y4_15 <=1 
C175: x4+x16-y4_16 <=1 
C176: x4+x17 <=1 
C177: x4+x20 <=1 
C178: x4+x22-y4_22 <=1 
C179: x4+x27-y4_27 <=1 
C180: x4+x32-y4_32 <=1 
C181: x4+x33-y4_33 <=1 
C182: x4+x34 <=1 
C183: x4+x35-y4_35 <=1 
C184: x4+x37-y4_37 <=1 
C185: x4+x38-y4_38 <=1 
C186: x4+x39 <=1 
C187: x4+x40 <=1 
C188: x4+x41 <=1 
C189: x4+x42-y4_42 <=1 
C190: x4+x43 <=1 
C191: x4+x44-y4_44 <=1 
C192: x4+x45-y4_45 <=1 
C193: x4+x47 <=1 
C194: x4+x50-y4_50 <=1 
C195: x4+x53-y4_53 <=1 
C196: x4+x54-y4_54 <=1 
C197: x4+x55 <=1 
C198: x4+x57 <=1 
C199: x4+x59-y4_59 <=1 
C200: x4+x61-y4_61 <=1 
C201: x4+x65 <=1 
C202: x5+x7 <=1 
C203: x5+x9 <=1 
C204: x5+x10-y5_10 <=1 
C205: x5+x11-y5_11 <=1 
C206: x5+x16-y5_16 <=1 
C207: x5+x18-y5_18 <=1 
C208: x5+x20-y5_20 <=1 
C209: x5+x22-y5_22 <=1 
C210: x5+x23 <=1 
C211: x5+x24-y5_24 <=1 
C212: x5+x26-y5_26 <=1 
C213: x5+x27-y5_27 <=1 
C214: x5+x29 <=1 
C215: x5+x31 <=1 
C216: x5+x32 <=1 
C217: x5+x33 <=1 
C218: x5+x34-y5_34 <=1 
C219: x5+x35-y5_35 <=1 
C220: x5+x36 <=1 
C221: x5+x37-y5_37 <=1 
C222: x5+x38-y5_38 <=1 
C223: x5+x39 <=1 
C224: x5+x41 <=1 
C225: x5+x44-y5_44 <=1 
C226: x5+x45-y5_45 <=1 
C227: x5+x46-y5_46 <=1 
C228: x5+x47 <=1 
C229: x5+x48 <=1 
C230: x5+x52 <=1 
C231: x5+x54 <=1 
C232: x5+x57-y5_57 <=1 
C233: x5+x58 <=1 
C234: x5+x60 <=1 
C235: x5+x61 <=1 
C236: x5+x62-y5_62 <=1 
C237: x5+x65-y5_65 <=1 
C238: x5+x66 <=1 
C239: x6+x9-y6_9 <=1 
C240: x6+x11 <=1 
C241: x6+x12 <=1 
C242: x6+x16 <=1 
C243: x6+x17-y6_17 <=1 
C244: x6+x19 <=1 
C245: x6+x21-y6_21 <=1 
C246: x6+x23 <=1 
C247: x6+x26 <=1 
C248: x6+x27-y6_27 <=1 
C249: x6+x29-y6_29 <=1 
C250: x6+x30-y6_30 <=1 
C251: x6+x32 <=1 
C252: x6+x34-y6_34 <=1 
C253: x6+x35-y6_35 <=1 
C254: x6+x36 <=1 
C255: x6+x37-y6_37 <=1 
C256: x6+x40-y6_40 <=1 
C257: x6+x46 <=1 
C258: x6+x47-y6_47 <=1 
C259: x6+x49 <=1 
C260: x6+x50-y6_50 <=1 
C261: x6+x52-y6_52 <=1 
C262: x6+x54-y6_54 <=1 
C263: x6+x55-y6_55 <=1 
C264: x6+x56 <=1 
C265: x6+x58 <=1 
C266: x6+x59 <=1 
C267: x6+x60-y6_60 <=1 
C268: x6+x64-y6_64 <=1 
C269: x6+x65 <=1 
C270: x6+x66 <=1 
C271: x7+x8 <=1 
C272: x7+x9-y7_9 <=1 
C273: x7+x11 <=1 
C274: x7+x12 <=1 
C275: x7+x14 <=1 
C276: x7+x19 <=1 
C277: x7+x22 <=1 
C278: x7+x25-y7_25 <=1 
C279: x7+x27 <=1 
C280: x7+x28 <=1 
C281: x7+x31 <=1 
C282: x7+x32-y7_32 <=1 
C283: x7+x33 <=1 
C284: x7+x34 <=1 
C285: x7+x35-y7_35 <=1 
C286: x7+x36 <=1 
C287: x7+x37-y7_37 <=1 
C288: x7+x38-y7_38 <=1 
C289: x7+x41-y7_41 <=1 
C290: x7+x44 <=1 
C291: x7+x46-y7_46 <=1 
C292: x7+x47-y7_47 <=1 
C293: x7+x49 <=1 
C294: x7+x50-y7_50 <=1 
C295: x7+x52-y7_52 <=1 
C296: x7+x53 <=1 
C297: x7+x54-y7_54 <=1 
C298: x7+x58-y7_58 <=1 
C299: x7+x60 <=1 
C300: x7+x65-y7_65 <=1 
C301: x8+x9 <=1 
C302: x8+x15-y8_15 <=1 
C303: x8+x16 <=1 
C304: x8+x17 <=1 
C305: x8+x18-y8_18 <=1 
C306: x8+x22-y8_22 <=1 
C307: x8+x23 <=1 
C308: x8+x24 <=1 
C309: x8+x26 <=1 
C310: x8+x27 <=1 
C311: x8+x31 <=1 
C312: x8+x32-y8_32 <=1 
C313: x8+x34-y8_34 <=1 
C314: x8+x37-y8_37 <=1 
C315: x8+x40-y8_40 <=1 
C316: x8+x41 <=1 
C317: x8+x43 <=1 
C318: x8+x44-y8_44 <=1 
C319: x8+x45 <=1 
C320: x8+x49 <=1 
C321: x8+x50 <=1 
C322: x8+x51 <=1 
C323: x8+x52 <=1 
C324: x8+x53 <=1 
C325: x8+x54-y8_54 <=1 
C326: x8+x55-y8_55 <=1 
C327: x8+x56 <=1 
C328: x8+x57 <=1 
C329: x8+x58-y8_58 <=1 
C330: x8+x60 <=1 
C331: x8+x61-y8_61 <=1 
C332: x8+x63-y8_63 <=1 
C333: x8+x64 <=1 
C334: x8+x65 <=1 
C335: x8+x66-y8_66 <=1 
C336: x9+x10 <=1 
C337: x9+x11 <=1 
C338: x9+x12-y9_12 <=1 
C339: x9+x17-y9_17 <=1 
C340: x9+x18-y9_18 <=1 
C341: x9+x21 <=1 
C342: x9+x23-y9_23 <=1 
C343: x9+x25-y9_25 <=1 
C344: x9+x27-y9_27 <=1 
C345: x9+x28 <=1 
C346: x9+x29-y9_29 <=1 
C347: x9+x31-y9_31 <=1 
C348: x9+x33 <=1 
C349: x9+x36 <=1 
C350: x9+x37-y9_37 <=1 
C351: x9+x38 <=1 
C352: x9+x40-y9_40 <=1 
C353: x9+x41 <=1 
C354: x9+x43 <=1 
C355: x9+x45-y9_45 <=1 
C356: x9+x47 <=1 
C357: x9+x48-y9_48 <=1 
C358: x9+x50 <=1 
C359: x9+x51 <=1 
C360: x9+x52 <=1 
C361: x9+x53 <=1 
C362: x9+x54 <=1 
C363: x9+x56-y9_56 <=1 
C364: x9+x59-y9_59 <=1 
C365: x9+x60-y9_60 <=1 
C366: x9+x62 <=1 
C367: x9+x63 <=1 
C368: x9+x64-y9_64 <=1 
C369: x9+x65-y9_65 <=1 
C370: x9+x66-y9_66 <=1 
C371: x10+x11-y10_11 <=1 
C372: x10+x12 <=1 
C373: x10+x13 <=1 
C374: x10+x15-y10_15 <=1 
C375: x10+x16 <=1 
C376: x10+x17-y10_17 <=1 
C377: x10+x19 <=1 
C378: x10+x20-y10_20 <=1 
C379: x10+x23-y10_23 <=1 
C380: x10+x24-y10_24 <=1 
C381: x10+x25 <=1 
C382: x10+x26 <=1 
C383: x10+x27-y10_27 <=1 
C384: x10+x28 <=1 
C385: x10+x29-y10_29 <=1 
C386: x10+x30 <=1 
C387: x10+x31-y10_31 <=1 
C388: x10+x32-y10_32 <=1 
C389: x10+x35 <=1 
C390: x10+x36-y10_36 <=1 
C391: x10+x37 <=1 
C392: x10+x40 <=1 
C393: x10+x41-y10_41 <=1 
C394: x10+x42 <=1 
C395: x10+x43 <=1 
C396: x10+x44 <=1 
C397: x10+x45 <=1 
C398: x10+x47 <=1 
C399: x10+x48-y10_48 <=1 
C400: x10+x49-y10_49 <=1 
C401: x10+x51 <=1 
C402: x10+x52-y10_52 <=1 
C403: x10+x54 <=1 
C404: x10+x55 <=1 
C405: x10+x56 <=1 
C406: x10+x58-y10_58 <=1 
C407: x10+x59 <=1 
C408: x10+x60-y10_60 <=1 
C409: x10+x61 <=1 
C410: x10+x62 <=1 
C411: x10+x64 <=1 
C412: x10+x65 <=1 
C413: x11+x12 <=1 
C414: x11+x13 <=1 
C415: x11+x14-y11_14 <=1 
C416: x11+x15-y11_15 <=1 
C417: x11+x19-y11_19 <=1 
C418: x11+x20-y11_20 <=1 
C419: x11+x21-y11_21 <=1 
C420: x11+x23 <=1 
C421: x11+x24-y11_24 <=1 
C422: x11+x25-y11_25 <=1 
C423: x11+x26-y11_26 <=1 
C424: x11+x29-y11_29 <=1 
C425: x11+x30 <=1 
C426: x11+x31-y11_31 <=1 
C427: x11+x33 <=1 
C428: x11+x34 <=1 
C429: x11+x35-y11_35 <=1 
C430: x11+x36-y11_36 <=1 
C431: x11+x37-y11_37 <=1 
C432: x11+x39 <=1 
C433: x11+x40-y11_40 <=1 
C434: x11+x41 <=1 
C435: x11+x43 <=1 
C436: x11+x45 <=1 
C437: x11+x49-y11_49 <=1 
C438: x11+x50-y11_50 <=1 
C439: x11+x53 <=1 
C440: x11+x55 <=1 
C441: x11+x56-y11_56 <=1 
C442: x11+x57 <=1 
C443: x11+x64 <=1 
C444: x11+x65-y11_65 <=1 
C445: x12+x14-y12_14 <=1 
C446: x12+x15-y12_15 <=1 
C447: x12+x16 <=1 
C448: x12+x17-y12_17 <=1 
C449: x12+x18 <=1 
C450: x12+x21 <=1 
C451: x12+x23 <=1 
C452: x12+x24-y12_24 <=1 
C453: x12+x27 <=1 
C454: x12+x29-y12_29 <=1 
C455: x12+x30 <=1 
C456: x12+x32 <=1 
C457: x12+x33-y12_33 <=1 
C458: x12+x34-y12_34 <=1 
C459: x12+x35 <=1 
C460: x12+x36-y12_36 <=1 
C461: x12+x38-y12_38 <=1 
C462: x12+x40-y12_40 <=1 
C463: x12+x41 <=1 
C464: x12+x43 <=1 
C465: x12+x44-y12_44 <=1 
C466: x12+x45-y12_45 <=1 
C467: x12+x46 <=1 
C468: x12+x47-y12_47 <=1 
C469: x12+x48 <=1 
C470: x12+x49 <=1 
C471: x12+x51-y12_51 <=1 
C472: x12+x52 <=1 
C473: x12+x53 <=1 
C474: x12+x61-y12_61 <=1 
C475: x12+x63 <=1 
C476: x12+x64-y12_64 <=1 
C477: x12+x65-y12_65 <=1 
C478: x12+x66-y12_66 <=1 
C479: x13+x14-y13_14 <=1 
C480: x13+x15 <=1 
C481: x13+x16-y13_16 <=1 
C482: x13+x17 <=1 
C483: x13+x18 <=1 
C484: x13+x19-y13_19 <=1 
C485: x13+x22 <=1 
C486: x13+x24 <=1 
C487: x13+x27 <=1 
C488: x13+x28-y13_28 <=1 
C489: x13+x29 <=1 
C490: x13+x30 <=1 
C491: x13+x31-y13_31 <=1 
C492: x13+x32-y13_32 <=1 
C493: x13+x33 <=1 
C494: x13+x35 <=1 
C495: x13+x36-y13_36 <=1 
C496: x13+x37 <=1 
C497: x13+x38-y13_38 <=1 
C498: x13+x39 <=1 
C499: x13+x40 <=1 
C500: x13+x41-y13_41 <=1 
C501: x13+x42 <=1 
C502: x13+x44-y13_44 <=1 
C503: x13+x45-y13_45 <=1 
C504: x13+x46-y13_46 <=1 
C505: x13+x49 <=1 
C506: x13+x50 <=1 
C507: x13+x51 <=1 
C508: x13+x53 <=1 
C509: x13+x54 <=1 
C510: x13+x57 <=1 
C511: x13+x59 <=1 
C512: x13+x63 <=1 
C513: x13+x64 <=1 
C514: x13+x66 <=1 
C515: x14+x15 <=1 
C516: x14+x16-y14_16 <=1 
C517: x14+x17-y14_17 <=1 
C518: x14+x18 <=1 
C519: x14+x19 <=1 
C520: x14+x20 <=1 
C521: x14+x22-y14_22 <=1 
C522: x14+x23 <=1 
C523: x14+x24 <=1 
C524: x14+x25 <=1 
C525: x14+x26 <=1 
C526: x14+x27 <=1 
C527: x14+x30 <=1 
C528: x14+x31-y14_31 <=1 
C529: x14+x32 <=1 
C530: x14+x33 <=1 
C531: x14+x34-y14_34 <=1 
C532: x14+x35-y14_35 <=1 
C533: x14+x38 <=1 
C534: x14+x39 <=1 
C535: x14+x40-y14_40 <=1 
C536: x14+x43-y14_43 <=1 
C537: x14+x45-y14_45 <=1 
C538: x14+x46 <=1 
C539: x14+x47 <=1 
C540: x14+x48 <=1 
C541: x14+x49-y14_49 <=1 
C542: x14+x51 <=1 
C543: x14+x53-y14_53 <=1 
C544: x14+x56-y14_56 <=1 
C545: x14+x57-y14_57 <=1 
C546: x14+x58 <=1 
C547: x14+x60 <=1 
C548: x14+x64-y14_64 <=1 
C549: x14+x65-y14_65 <=1 
C550: x15+x16 <=1 
C551: x15+x18 <=1 
C552: x15+x19 <=1 
C553: x15+x20 <=1 
C554: x15+x21-y15_21 <=1 
C555: x15+x22 <=1 
C556: x15+x23-y15_23 <=1 
C557: x15+x27 <=1 
C558: x15+x28 <=1 
C559: x15+x30 <=1 
C560: x15+x36 <=1 
C561: x15+x37 <=1 
C562: x15+x41 <=1 
C563: x15+x43-y15_43 <=1 
C564: x15+x46-y15_46 <=1 
C565: x15+x47 <=1 
C566: x15+x48-y15_48 <=1 
C567: x15+x49-y15_49 <=1 
C568: x15+x51 <=1 
C569: x15+x52 <=1 
C570: x15+x53 <=1 
C571: x15+x57 <=1 
C572: x15+x58 <=1 
C573: x15+x60-y15_60 <=1 
C574: x15+x62-y15_62 <=1 
C575: x16+x17 <=1 
C576: x16+x21 <=1 
C577: x16+x22-y16_22 <=1 
C578: x16+x25-y16_25 <=1 
C579: x16+x26-y16_26 <=1 
C580: x16+x29-y16_29 <=1 
C581: x16+x30-y16_30 <=1 
C582: x16+x31 <=1 
C583: x16+x32 <=1 
C584: x16+x35-y16_35 <=1 
C585: x16+x38-y16_38 <=1 
C586: x16+x39 <=1 
C587: x16+x41 <=1 
C588: x16+x44 <=1 
C589: x16+x49 <=1 
C590: x16+x50 <=1 
C591: x16+x52-y16_52 <=1 
C592: x16+x53 <=1 
C593: x16+x56 <=1 
C594: x16+x57 <=1 
C595: x16+x58 <=1 
C596: x16+x59 <=1 
C597: x16+x61-y16_61 <=1 
C598: x16+x62 <=1 
C599: x16+x64 <=1 
C600: x16+x65-y16_65 <=1 
C601: x16+x66-y16_66 <=1 
C602: x17+x19 <=1 
C603: x17+x20-y17_20 <=1 
C604: x17+x21 <=1 
C605: x17+x24-y17_24 <=1 
C606: x17+x25 <=1 
C607: x17+x26-y17_26 <=1 
C608: x17+x27 <=1 
C609: x17+x28 <=1 
C610: x17+x29-y17_29 <=1 
C611: x17+x31 <=1 
C612: x17+x32-y17_32 <=1 
C613: x17+x33 <=1 
C614: x17+x34-y17_34 <=1 
C615: x17+x35 <=1 
C616: x17+x38-y17_38 <=1 
C617: x17+x40-y17_40 <=1 
C618: x17+x43 <=1 
C619: x17+x46 <=1 
C620: x17+x47-y17_47 <=1 
C621: x17+x48-y17_48 <=1 
C622: x17+x51 <=1 
C623: x17+x53-y17_53 <=1 
C624: x17+x54 <=1 
C625: x17+x57-y17_57 <=1 
C626: x17+x58-y17_58 <=1 
C627: x17+x59 <=1 
C628: x17+x60 <=1 
C629: x17+x62-y17_62 <=1 
C630: x17+x64-y17_64 <=1 
C631: x17+x66 <=1 
C632: x18+x19 <=1 
C633: x18+x20 <=1 
C634: x18+x22 <=1 
C635: x18+x23 <=1 
C636: x18+x24 <=1 
C637: x18+x25-y18_25 <=1 
C638: x18+x27-y18_27 <=1 
C639: x18+x32 <=1 
C640: x18+x33 <=1 
C641: x18+x34 <=1 
C642: x18+x35 <=1 
C643: x18+x38-y18_38 <=1 
C644: x18+x41 <=1 
C645: x18+x43 <=1 
C646: x18+x45 <=1 
C647: x18+x47 <=1 
C648: x18+x49 <=1 
C649: x18+x50 <=1 
C650: x18+x51-y18_51 <=1 
C651: x18+x53-y18_53 <=1 
C652: x18+x54-y18_54 <=1 
C653: x18+x55-y18_55 <=1 
C654: x18+x56 <=1 
C655: x18+x57-y18_57 <=1 
C656: x18+x61-y18_61 <=1 
C657: x18+x63 <=1 
C658: x18+x65-y18_65 <=1 
C659: x18+x66 <=1 
C660: x19+x20 <=1 
C661: x19+x21 <=1 
C662: x19+x22 <=1 
C663: x19+x24 <=1 
C664: x19+x25-y19_25 <=1 
C665: x19+x29-y19_29 <=1 
C666: x19+x31-y19_31 <=1 
C667: x19+x32 <=1 
C668: x19+x33-y19_33 <=1 
C669: x19+x34-y19_34 <=1 
C670: x19+x35-y19_35 <=1 
C671: x19+x36-y19_36 <=1 
C672: x19+x37 <=1 
C673: x19+x39-y19_39 <=1 
C674: x19+x40-y19_40 <=1 
C675: x19+x41-y19_41 <=1 
C676: x19+x42 <=1 
C677: x19+x43 <=1 
C678: x19+x44-y19_44 <=1 
C679: x19+x45 <=1 
C680: x19+x46 <=1 
C681: x19+x48-y19_48 <=1 
C682: x19+x49 <=1 
C683: x19+x50-y19_50 <=1 
C684: x19+x52 <=1 
C685: x19+x54 <=1 
C686: x19+x55-y19_55 <=1 
C687: x19+x56-y19_56 <=1 
C688: x19+x57 <=1 
C689: x19+x58-y19_58 <=1 
C690: x19+x59 <=1 
C691: x19+x60-y19_60 <=1 
C692: x19+x62-y19_62 <=1 
C693: x19+x63 <=1 
C694: x19+x66 <=1 
C695: x20+x21-y20_21 <=1 
C696: x20+x22-y20_22 <=1 
C697: x20+x24-y20_24 <=1 
C698: x20+x25 <=1 
C699: x20+x26-y20_26 <=1 
C700: x20+x27 <=1 
C701: x20+x28 <=1 
C702: x20+x29 <=1 
C703: x20+x30 <=1 
C704: x20+x31-y20_31 <=1 
C705: x20+x32 <=1 
C706: x20+x33 <=1 
C707: x20+x34 <=1 
C708: x20+x36 <=1 
C709: x20+x37 <=1 
C710: x20+x38-y20_38 <=1 
C711: x20+x39-y20_39 <=1 
C712: x20+x41-y20_41 <=1 
C713: x20+x44-y20_44 <=1 
C714: x20+x48 <=1 
C715: x20+x49-y20_49 <=1 
C716: x20+x50-y20_50 <=1 
C717: x20+x51-y20_51 <=1 
C718: x20+x53-y20_53 <=1 
C719: x20+x54 <=1 
C720: x20+x55-y20_55 <=1 
C721: x20+x56-y20_56 <=1 
C722: x20+x60-y20_60 <=1 
C723: x20+x61 <=1 
C724: x20+x62-y20_62 <=1 
C725: x20+x64-y20_64 <=1 
C726: x20+x65-y20_65 <=1 
C727: x20+x66 <=1 
C728: x21+x24 <=1 
C729: x21+x25 <=1 
C730: x21+x26-y21_26 <=1 
C731: x21+x28 <=1 
C732: x21+x30-y21_30 <=1 
C733: x21+x31 <=1 
C734: x21+x34 <=1 
C735: x21+x35 <=1 
C736: x21+x36 <=1 
C737: x21+x37-y21_37 <=1 
C738: x21+x38-y21_38 <=1 
C739: x21+x39-y21_39 <=1 
C740: x21+x40-y21_40 <=1 
C741: x21+x42 <=1 
C742: x21+x44 <=1 
C743: x21+x48-y21_48 <=1 
C744: x21+x49 <=1 
C745: x21+x52-y21_52 <=1 
C746: x21+x53-y21_53 <=1 
C747: x21+x54 <=1 
C748: x21+x55-y21_55 <=1 
C749: x21+x56 <=1 
C750: x21+x58 <=1 
C751: x21+x60 <=1 
C752: x21+x61 <=1 
C753: x21+x62-y21_62 <=1 
C754: x21+x63 <=1 
C755: x21+x65 <=1 
C756: x22+x23-y22_23 <=1 
C757: x22+x25-y22_25 <=1 
C758: x22+x27-y22_27 <=1 
C759: x22+x30 <=1 
C760: x22+x31-y22_31 <=1 
C761: x22+x32 <=1 
C762: x22+x36 <=1 
C763: x22+x37 <=1 
C764: x22+x38-y22_38 <=1 
C765: x22+x39-y22_39 <=1 
C766: x22+x40 <=1 
C767: x22+x41-y22_41 <=1 
C768: x22+x42-y22_42 <=1 
C769: x22+x43-y22_43 <=1 
C770: x22+x44 <=1 
C771: x22+x46 <=1 
C772: x22+x48-y22_48 <=1 
C773: x22+x49-y22_49 <=1 
C774: x22+x50-y22_50 <=1 
C775: x22+x51-y22_51 <=1 
C776: x22+x52 <=1 
C777: x22+x53 <=1 
C778: x22+x54-y22_54 <=1 
C779: x22+x59 <=1 
C780: x22+x60 <=1 
C781: x22+x63-y22_63 <=1 
C782: x22+x64 <=1 
C783: x23+x24-y23_24 <=1 
C784: x23+x25 <=1 
C785: x23+x26 <=1 
C786: x23+x27 <=1 
C787: x23+x31-y23_31 <=1 
C788: x23+x32-y23_32 <=1 
C789: x23+x34-y23_34 <=1 
C790: x23+x35-y23_35 <=1 
C791: x23+x37-y23_37 <=1 
C792: x23+x39 <=1 
C793: x23+x40-y23_40 <=1 
C794: x23+x41-y23_41 <=1 
C795: x23+x43-y23_43 <=1 
C796: x23+x44 <=1 
C797: x23+x45 <=1 
C798: x23+x46-y23_46 <=1 
C799: x23+x49-y23_49 <=1 
C800: x23+x50 <=1 
C801: x23+x51 <=1 
C802: x23+x54 <=1 
C803: x23+x55-y23_55 <=1 
C804: x23+x56 <=1 
C805: x23+x58-y23_58 <=1 
C806: x23+x61 <=1 
C807: x23+x62-y23_62 <=1 
C808: x23+x65 <=1 
C809: x24+x26 <=1 
C810: x24+x27-y24_27 <=1 
C811: x24+x28-y24_28 <=1 
C812: x24+x29-y24_29 <=1 
C813: x24+x31 <=1 
C814: x24+x34 <=1 
C815: x24+x35 <=1 
C816: x24+x36-y24_36 <=1 
C817: x24+x37 <=1 
C818: x24+x40-y24_40 <=1 
C819: x24+x42-y24_42 <=1 
C820: x24+x43-y24_43 <=1 
C821: x24+x45 <=1 
C822: x24+x46-y24_46 <=1 
C823: x24+x47 <=1 
C824: x24+x48-y24_48 <=1 
C825: x24+x50 <=1 
C826: x24+x54-y24_54 <=1 
C827: x24+x61-y24_61 <=1 
C828: x24+x62 <=1 
C829: x24+x64 <=1 
C830: x24+x65 <=1 
C831: x25+x28 <=1 
C832: x25+x29 <=1 
C833: x25+x32 <=1 
C834: x25+x33 <=1 
C835: x25+x34-y25_34 <=1 
C836: x25+x36 <=1 
C837: x25+x37-y25_37 <=1 
C838: x25+x40 <=1 
C839: x25+x41-y25_41 <=1 
C840: x25+x42-y25_42 <=1 
C841: x25+x43-y25_43 <=1 
C842: x25+x45-y25_45 <=1 
C843: x25+x47 <=1 
C844: x25+x49 <=1 
C845: x25+x50-y25_50 <=1 
C846: x25+x52 <=1 
C847: x25+x54 <=1 
C848: x25+x55-y25_55 <=1 
C849: x25+x60-y25_60 <=1 
C850: x25+x62-y25_62 <=1 
C851: x25+x63 <=1 
C852: x25+x64-y25_64 <=1 
C853: x25+x65 <=1 
C854: x25+x66-y25_66 <=1 
C855: x26+x27 <=1 
C856: x26+x28 <=1 
C857: x26+x30-y26_30 <=1 
C858: x26+x31-y26_31 <=1 
C859: x26+x32-y26_32 <=1 
C860: x26+x38 <=1 
C861: x26+x39-y26_39 <=1 
C862: x26+x40-y26_40 <=1 
C863: x26+x43 <=1 
C864: x26+x44 <=1 
C865: x26+x45 <=1 
C866: x26+x46 <=1 
C867: x26+x47 <=1 
C868: x26+x50 <=1 
C869: x26+x51-y26_51 <=1 
C870: x26+x53-y26_53 <=1 
C871: x26+x54 <=1 
C872: x26+x56-y26_56 <=1 
C873: x26+x57 <=1 
C874: x26+x62 <=1 
C875: x26+x63-y26_63 <=1 
C876: x26+x64 <=1 
C877: x27+x29-y27_29 <=1 
C878: x27+x30 <=1 
C879: x27+x33 <=1 
C880: x27+x34-y27_34 <=1 
C881: x27+x37 <=1 
C882: x27+x39 <=1 
C883: x27+x41 <=1 
C884: x27+x43 <=1 
C885: x27+x45 <=1 
C886: x27+x49 <=1 
C887: x27+x50 <=1 
C888: x27+x51-y27_51 <=1 
C889: x27+x52-y27_52 <=1 
C890: x27+x53 <=1 
C891: x27+x54-y27_54 <=1 
C892: x27+x55-y27_55 <=1 
C893: x27+x56 <=1 
C894: x27+x62 <=1 
C895: x27+x63 <=1 
C896: x27+x64 <=1 
C897: x27+x65-y27_65 <=1 
C898: x28+x29-y28_29 <=1 
C899: x28+x31-y28_31 <=1 
C900: x28+x32-y28_32 <=1 
C901: x28+x35 <=1 
C902: x28+x36 <=1 
C903: x28+x39-y28_39 <=1 
C904: x28+x40 <=1 
C905: x28+x41-y28_41 <=1 
C906: x28+x43 <=1 
C907: x28+x44-y28_44 <=1 
C908: x28+x46 <=1 
C909: x28+x48 <=1 
C910: x28+x49-y28_49 <=1 
C911: x28+x50-y28_50 <=1 
C912: x28+x51-y28_51 <=1 
C913: x28+x52 <=1 
C914: x28+x56 <=1 
C915: x28+x57-y28_57 <=1 
C916: x28+x58 <=1 
C917: x28+x61 <=1 
C918: x28+x62-y28_62 <=1 
C919: x28+x63-y28_63 <=1 
C920: x28+x64 <=1 
C921: x28+x65 <=1 
C922: x28+x66-y28_66 <=1 
C923: x29+x32 <=1 
C924: x29+x33-y29_33 <=1 
C925: x29+x38-y29_38 <=1 
C926: x29+x39 <=1 
C927: x29+x40 <=1 
C928: x29+x41-y29_41 <=1 
C929: x29+x44 <=1 
C930: x29+x46-y29_46 <=1 
C931: x29+x48-y29_48 <=1 
C932: x29+x50-y29_50 <=1 
C933: x29+x51-y29_51 <=1 
C934: x29+x52 <=1 
C935: x29+x53-y29_53 <=1 
C936: x29+x54 <=1 
C937: x29+x55 <=1 
C938: x29+x57 <=1 
C939: x29+x58-y29_58 <=1 
C940: x29+x59-y29_59 <=1 
C941: x29+x60-y29_60 <=1 
C942: x29+x61 <=1 
C943: x29+x62 <=1 
C944: x29+x66-y29_66 <=1 
C945: x30+x32 <=1 
C946: x30+x33 <=1 
C947: x30+x35 <=1 
C948: x30+x36 <=1 
C949: x30+x37 <=1 
C950: x30+x43-y30_43 <=1 
C951: x30+x45-y30_45 <=1 
C952: x30+x48-y30_48 <=1 
C953: x30+x49 <=1 
C954: x30+x50-y30_50 <=1 
C955: x30+x51-y30_51 <=1 
C956: x30+x53 <=1 
C957: x30+x55-y30_55 <=1 
C958: x30+x57-y30_57 <=1 
C959: x30+x59 <=1 
C960: x30+x61 <=1 
C961: x30+x63 <=1 
C962: x30+x65 <=1 
C963: x31+x32-y31_32 <=1 
C964: x31+x33-y31_33 <=1 
C965: x31+x34-y31_34 <=1 
C966: x31+x36-y31_36 <=1 
C967: x31+x37-y31_37 <=1 
C968: x31+x38-y31_38 <=1 
C969: x31+x40-y31_40 <=1 
C970: x31+x41 <=1 
C971: x31+x42 <=1 
C972: x31+x43 <=1 
C973: x31+x49 <=1 
C974: x31+x51 <=1 
C975: x31+x54-y31_54 <=1 
C976: x31+x55 <=1 
C977: x31+x56-y31_56 <=1 
C978: x31+x57-y31_57 <=1 
C979: x31+x59 <=1 
C980: x31+x61 <=1 
C981: x31+x62-y31_62 <=1 
C982: x31+x65-y31_65 <=1 
C983: x31+x66-y31_66 <=1 
C984: x32+x33-y32_33 <=1 
C985: x32+x35 <=1 
C986: x32+x39 <=1 
C987: x32+x41-y32_41 <=1 
C988: x32+x42-y32_42 <=1 
C989: x32+x43-y32_43 <=1 
C990: x32+x45-y32_45 <=1 
C991: x32+x47-y32_47 <=1 
C992: x32+x49 <=1 
C993: x32+x51-y32_51 <=1 
C994: x32+x52 <=1 
C995: x32+x54 <=1 
C996: x32+x55 <=1 
C997: x32+x57-y32_57 <=1 
C998: x32+x59-y32_59 <=1 
C999: x32+x61 <=1 
C1000: x32+x63-y32_63 <=1 
C1001: x32+x65-y32_65 <=1 
C1002: x32+x66-y32_66 <=1 
C1003: x33+x35-y33_35 <=1 
C1004: x33+x37-y33_37 <=1 
C1005: x33+x41 <=1 
C1006: x33+x43 <=1 
C1007: x33+x45-y33_45 <=1 
C1008: x33+x49 <=1 
C1009: x33+x50 <=1 
C1010: x33+x53-y33_53 <=1 
C1011: x33+x54 <=1 
C1012: x33+x58-y33_58 <=1 
C1013: x33+x59-y33_59 <=1 
C1014: x33+x60-y33_60 <=1 
C1015: x33+x62-y33_62 <=1 
C1016: x33+x64 <=1 
C1017: x33+x65-y33_65 <=1 
C1018: x34+x35-y34_35 <=1 
C1019: x34+x36-y34_36 <=1 
C1020: x34+x38 <=1 
C1021: x34+x39-y34_39 <=1 
C1022: x34+x44 <=1 
C1023: x34+x45 <=1 
C1024: x34+x48 <=1 
C1025: x34+x49 <=1 
C1026: x34+x51 <=1 
C1027: x34+x53-y34_53 <=1 
C1028: x34+x54-y34_54 <=1 
C1029: x34+x55 <=1 
C1030: x34+x56 <=1 
C1031: x34+x57 <=1 
C1032: x34+x58 <=1 
C1033: x34+x59-y34_59 <=1 
C1034: x34+x60-y34_60 <=1 
C1035: x34+x62 <=1 
C1036: x34+x65-y34_65 <=1 
C1037: x35+x36-y35_36 <=1 
C1038: x35+x40 <=1 
C1039: x35+x42 <=1 
C1040: x35+x43 <=1 
C1041: x35+x44 <=1 
C1042: x35+x45 <=1 
C1043: x35+x47-y35_47 <=1 
C1044: x35+x49-y35_49 <=1 
C1045: x35+x52-y35_52 <=1 
C1046: x35+x53-y35_53 <=1 
C1047: x35+x54-y35_54 <=1 
C1048: x35+x57-y35_57 <=1 
C1049: x35+x58 <=1 
C1050: x35+x59-y35_59 <=1 
C1051: x35+x60-y35_60 <=1 
C1052: x35+x61-y35_61 <=1 
C1053: x35+x62-y35_62 <=1 
C1054: x35+x66-y35_66 <=1 
C1055: x36+x37 <=1 
C1056: x36+x38 <=1 
C1057: x36+x39 <=1 
C1058: x36+x40-y36_40 <=1 
C1059: x36+x42 <=1 
C1060: x36+x43-y36_43 <=1 
C1061: x36+x44 <=1 
C1062: x36+x45-y36_45 <=1 
C1063: x36+x46-y36_46 <=1 
C1064: x36+x48-y36_48 <=1 
C1065: x36+x49-y36_49 <=1 
C1066: x36+x50 <=1 
C1067: x36+x51-y36_51 <=1 
C1068: x36+x52-y36_52 <=1 
C1069: x36+x54 <=1 
C1070: x36+x55-y36_55 <=1 
C1071: x36+x56-y36_56 <=1 
C1072: x36+x57-y36_57 <=1 
C1073: x36+x60 <=1 
C1074: x36+x61 <=1 
C1075: x36+x62 <=1 
C1076: x36+x63 <=1 
C1077: x36+x64 <=1 
C1078: x36+x65-y36_65 <=1 
C1079: x37+x38 <=1 
C1080: x37+x41-y37_41 <=1 
C1081: x37+x42-y37_42 <=1 
C1082: x37+x43-y37_43 <=1 
C1083: x37+x44-y37_44 <=1 
C1084: x37+x46-y37_46 <=1 
C1085: x37+x47 <=1 
C1086: x37+x50-y37_50 <=1 
C1087: x37+x52 <=1 
C1088: x37+x53-y37_53 <=1 
C1089: x37+x54 <=1 
C1090: x37+x55-y37_55 <=1 
C1091: x37+x56-y37_56 <=1 
C1092: x37+x58 <=1 
C1093: x37+x59 <=1 
C1094: x37+x60-y37_60 <=1 
C1095: x37+x61-y37_61 <=1 
C1096: x37+x62 <=1 
C1097: x37+x63-y37_63 <=1 
C1098: x37+x65 <=1 
C1099: x37+x66 <=1 
C1100: x38+x41 <=1 
C1101: x38+x42-y38_42 <=1 
C1102: x38+x43-y38_43 <=1 
C1103: x38+x45-y38_45 <=1 
C1104: x38+x47 <=1 
C1105: x38+x49 <=1 
C1106: x38+x54-y38_54 <=1 
C1107: x38+x56 <=1 
C1108: x38+x57-y38_57 <=1 
C1109: x38+x58-y38_58 <=1 
C1110: x38+x61-y38_61 <=1 
C1111: x38+x62 <=1 
C1112: x38+x66 <=1 
C1113: x39+x43 <=1 
C1114: x39+x45-y39_45 <=1 
C1115: x39+x47-y39_47 <=1 
C1116: x39+x49-y39_49 <=1 
C1117: x39+x51 <=1 
C1118: x39+x52 <=1 
C1119: x39+x53-y39_53 <=1 
C1120: x39+x56 <=1 
C1121: x39+x57-y39_57 <=1 
C1122: x39+x58 <=1 
C1123: x39+x59-y39_59 <=1 
C1124: x39+x60-y39_60 <=1 
C1125: x39+x61-y39_61 <=1 
C1126: x39+x63-y39_63 <=1 
C1127: x39+x64 <=1 
C1128: x39+x66 <=1 
C1129: x40+x41 <=1 
C1130: x40+x44 <=1 
C1131: x40+x45-y40_45 <=1 
C1132: x40+x46-y40_46 <=1 
C1133: x40+x47-y40_47 <=1 
C1134: x40+x48-y40_48 <=1 
C1135: x40+x49 <=1 
C1136: x40+x50 <=1 
C1137: x40+x51 <=1 
C1138: x40+x52-y40_52 <=1 
C1139: x40+x54 <=1 
C1140: x40+x55-y40_55 <=1 
C1141: x40+x58-y40_58 <=1 
C1142: x40+x59-y40_59 <=1 
C1143: x40+x60 <=1 
C1144: x40+x61-y40_61 <=1 
C1145: x40+x62-y40_62 <=1 
C1146: x40+x64-y40_64 <=1 
C1147: x40+x65-y40_65 <=1 
C1148: x40+x66 <=1 
C1149: x41+x47 <=1 
C1150: x41+x48 <=1 
C1151: x41+x49-y41_49 <=1 
C1152: x41+x51-y41_51 <=1 
C1153: x41+x54-y41_54 <=1 
C1154: x41+x55 <=1 
C1155: x41+x56-y41_56 <=1 
C1156: x41+x57-y41_57 <=1 
C1157: x41+x59-y41_59 <=1 
C1158: x41+x60 <=1 
C1159: x41+x62 <=1 
C1160: x41+x63-y41_63 <=1 
C1161: x41+x64 <=1 
C1162: x41+x65 <=1 
C1163: x41+x66-y41_66 <=1 
C1164: x42+x44-y42_44 <=1 
C1165: x42+x45-y42_45 <=1 
C1166: x42+x46 <=1 
C1167: x42+x48 <=1 
C1168: x42+x49 <=1 
C1169: x42+x51 <=1 
C1170: x42+x52-y42_52 <=1 
C1171: x42+x53 <=1 
C1172: x42+x56 <=1 
C1173: x42+x58 <=1 
C1174: x42+x61-y42_61 <=1 
C1175: x42+x63-y42_63 <=1 
C1176: x42+x64 <=1 
C1177: x42+x65 <=1 
C1178: x42+x66 <=1 
C1179: x43+x44-y43_44 <=1 
C1180: x43+x46-y43_46 <=1 
C1181: x43+x48 <=1 
C1182: x43+x49 <=1 
C1183: x43+x51 <=1 
C1184: x43+x52 <=1 
C1185: x43+x53 <=1 
C1186: x43+x54 <=1 
C1187: x43+x56-y43_56 <=1 
C1188: x43+x57 <=1 
C1189: x43+x58 <=1 
C1190: x43+x59-y43_59 <=1 
C1191: x43+x63 <=1 
C1192: x43+x66 <=1 
C1193: x44+x46 <=1 
C1194: x44+x47-y44_47 <=1 
C1195: x44+x48 <=1 
C1196: x44+x51-y44_51 <=1 
C1197: x44+x52 <=1 
C1198: x44+x53 <=1 
C1199: x44+x54-y44_54 <=1 
C1200: x44+x56 <=1 
C1201: x44+x57 <=1 
C1202: x44+x58 <=1 
C1203: x44+x59-y44_59 <=1 
C1204: x44+x61-y44_61 <=1 
C1205: x44+x62 <=1 
C1206: x44+x63-y44_63 <=1 
C1207: x45+x46-y45_46 <=1 
C1208: x45+x47 <=1 
C1209: x45+x48 <=1 
C1210: x45+x50 <=1 
C1211: x45+x52 <=1 
C1212: x45+x54 <=1 
C1213: x45+x57-y45_57 <=1 
C1214: x45+x59 <=1 
C1215: x45+x60-y45_60 <=1 
C1216: x45+x61-y45_61 <=1 
C1217: x45+x62 <=1 
C1218: x45+x64 <=1 
C1219: x46+x48 <=1 
C1220: x46+x49 <=1 
C1221: x46+x51 <=1 
C1222: x46+x52-y46_52 <=1 
C1223: x46+x53-y46_53 <=1 
C1224: x46+x54-y46_54 <=1 
C1225: x46+x55 <=1 
C1226: x46+x59 <=1 
C1227: x46+x61 <=1 
C1228: x46+x62-y46_62 <=1 
C1229: x46+x63-y46_63 <=1 
C1230: x46+x64-y46_64 <=1 
C1231: x46+x65 <=1 
C1232: x46+x66 <=1 
C1233: x47+x48-y47_48 <=1 
C1234: x47+x49-y47_49 <=1 
C1235: x47+x52 <=1 
C1236: x47+x53 <=1 
C1237: x47+x54-y47_54 <=1 
C1238: x47+x56-y47_56 <=1 
C1239: x47+x57-y47_57 <=1 
C1240: x47+x58 <=1 
C1241: x47+x61-y47_61 <=1 
C1242: x47+x62 <=1 
C1243: x47+x63-y47_63 <=1 
C1244: x47+x64 <=1 
C1245: x47+x66 <=1 
C1246: x48+x57 <=1 
C1247: x48+x59-y48_59 <=1 
C1248: x48+x63-y48_63 <=1 
C1249: x48+x64-y48_64 <=1 
C1250: x48+x65-y48_65 <=1 
C1251: x48+x66-y48_66 <=1 
C1252: x49+x50 <=1 
C1253: x49+x51 <=1 
C1254: x49+x53 <=1 
C1255: x49+x55-y49_55 <=1 
C1256: x49+x57 <=1 
C1257: x49+x61 <=1 
C1258: x49+x63-y49_63 <=1 
C1259: x49+x65-y49_65 <=1 
C1260: x50+x51 <=1 
C1261: x50+x55 <=1 
C1262: x50+x57 <=1 
C1263: x50+x60-y50_60 <=1 
C1264: x50+x61-y50_61 <=1 
C1265: x50+x62 <=1 
C1266: x50+x63 <=1 
C1267: x50+x66-y50_66 <=1 
C1268: x51+x54 <=1 
C1269: x51+x59 <=1 
C1270: x51+x61-y51_61 <=1 
C1271: x51+x63-y51_63 <=1 
C1272: x51+x64 <=1 
C1273: x51+x66-y51_66 <=1 
C1274: x52+x53 <=1 
C1275: x52+x54-y52_54 <=1 
C1276: x52+x56 <=1 
C1277: x52+x58 <=1 
C1278: x52+x59 <=1 
C1279: x52+x62 <=1 
C1280: x52+x64-y52_64 <=1 
C1281: x52+x66 <=1 
C1282: x53+x54-y53_54 <=1 
C1283: x53+x55-y53_55 <=1 
C1284: x53+x56-y53_56 <=1 
C1285: x53+x57-y53_57 <=1 
C1286: x53+x58 <=1 
C1287: x53+x59-y53_59 <=1 
C1288: x53+x60 <=1 
C1289: x53+x61 <=1 
C1290: x53+x62 <=1 
C1291: x53+x63 <=1 
C1292: x53+x65 <=1 
C1293: x54+x55 <=1 
C1294: x54+x56 <=1 
C1295: x54+x57-y54_57 <=1 
C1296: x54+x58-y54_58 <=1 
C1297: x54+x60-y54_60 <=1 
C1298: x54+x61 <=1 
C1299: x54+x62 <=1 
C1300: x54+x63-y54_63 <=1 
C1301: x54+x65 <=1 
C1302: x54+x66-y54_66 <=1 
C1303: x55+x56-y55_56 <=1 
C1304: x55+x60-y55_60 <=1 
C1305: x55+x61 <=1 
C1306: x55+x62-y55_62 <=1 
C1307: x55+x63 <=1 
C1308: x55+x65-y55_65 <=1 
C1309: x55+x66 <=1 
C1310: x56+x58-y56_58 <=1 
C1311: x56+x59 <=1 
C1312: x56+x60-y56_60 <=1 
C1313: x56+x62 <=1 
C1314: x56+x63 <=1 
C1315: x56+x64 <=1 
C1316: x57+x59-y57_59 <=1 
C1317: x57+x62-y57_62 <=1 
C1318: x57+x66-y57_66 <=1 
C1319: x58+x59 <=1 
C1320: x58+x60-y58_60 <=1 
C1321: x58+x61 <=1 
C1322: x58+x62 <=1 
C1323: x58+x63-y58_63 <=1 
C1324: x58+x64-y58_64 <=1 
C1325: x58+x65 <=1 
C1326: x59+x61-y59_61 <=1 
C1327: x59+x62-y59_62 <=1 
C1328: x59+x63 <=1 
C1329: x59+x66-y59_66 <=1 
C1330: x60+x61 <=1 
C1331: x60+x66 <=1 
C1332: x61+x65-y61_65 <=1 
C1333: x61+x66 <=1 
C1334: x62+x65-y62_65 <=1 
C1335: x62+x66-y62_66 <=1 
C1336: x63+x64 <=1 
C1337: x63+x65-y63_65 <=1 
C1338: x63+x66 <=1 
C1339: x65+x66-y65_66 <=1 

binary
x0
x1
x2
x3
x4
x5
x6
x7
x8
x9
x10
x11
x12
x13
x14
x15
x16
x17
x18
x19
x20
x21
x22
x23
x24
x25
x26
x27
x28
x29
x30
x31
x32
x33
x34
x35
x36
x37
x38
x39
x40
x41
x42
x43
x44
x45
x46
x47
x48
x49
x50
x51
x52
x53
x54
x55
x56
x57
x58
x59
x60
x61
x62
x63
x64
x65
x66
