problem_generation/data/GISP/train/er_n=67_m=1339_p=0.60_SET2_setparam=100.00_alpha=0.50_805.sol
objective value:                                 1176
x0                                                  1 	(obj:100)
x1                                                  1 	(obj:100)
x6                                                  1 	(obj:100)
x7                                                  1 	(obj:100)
x9                                                  1 	(obj:100)
x15                                                 1 	(obj:100)
x17                                                 1 	(obj:100)
x24                                                 1 	(obj:100)
x39                                                 1 	(obj:100)
x40                                                 1 	(obj:100)
x42                                                 1 	(obj:100)
x61                                                 1 	(obj:100)
y39_61                                              1 	(obj:-1)
y1_61                                               1 	(obj:-1)
y17_24                                              1 	(obj:-1)
y24_40                                              1 	(obj:-1)
y6_9                                                1 	(obj:-1)
y1_15                                               1 	(obj:-1)
y42_61                                              1 	(obj:-1)
y0_40                                               1 	(obj:-1)
y40_61                                              1 	(obj:-1)
y7_9                                                1 	(obj:-1)
y6_40                                               1 	(obj:-1)
y6_17                                               1 	(obj:-1)
y24_61                                              1 	(obj:-1)
y17_40                                              1 	(obj:-1)
y9_40                                               1 	(obj:-1)
y24_42                                              1 	(obj:-1)
y9_17                                               1 	(obj:-1)
y1_17                                               1 	(obj:-1)
y1_39                                               1 	(obj:-1)
y0_61                                               1 	(obj:-1)
y0_6                                                1 	(obj:-1)
y0_15                                               1 	(obj:-1)
y1_6                                                1 	(obj:-1)
y0_1                                                1 	(obj:-1)
